\* MultiCast *\
Minimize
obj_func: 2 X_(0,_3,_1) + 2 X_(0,_3,_2) + 4 X_(0,_4,_1) + 4 X_(0,_4,_2)
 + 2 X_(0,_7,_1) + 2 X_(0,_7,_2) + 3 X_(1,_3,_1) + 3 X_(1,_3,_2)
 + 4 X_(1,_4,_1) + 4 X_(1,_4,_2) + 3 X_(1,_6,_1) + 3 X_(1,_6,_2)
 + 2 X_(1,_7,_1) + 2 X_(1,_7,_2) + 3 X_(1,_8,_1) + 3 X_(1,_8,_2)
 + 5 X_(2,_5,_1) + 5 X_(2,_5,_2) + 4 X_(2,_8,_1) + 4 X_(2,_8,_2)
 + 2 X_(3,_0,_1) + 2 X_(3,_0,_2) + 3 X_(3,_1,_1) + 3 X_(3,_1,_2)
 + 2 X_(3,_4,_1) + 2 X_(3,_4,_2) + 3 X_(3,_7,_1) + 3 X_(3,_7,_2)
 + 4 X_(4,_0,_1) + 4 X_(4,_0,_2) + 4 X_(4,_1,_1) + 4 X_(4,_1,_2)
 + 2 X_(4,_3,_1) + 2 X_(4,_3,_2) + 2 X_(4,_5,_1) + 2 X_(4,_5,_2)
 + 5 X_(4,_6,_1) + 5 X_(4,_6,_2) + 5 X_(4,_7,_1) + 5 X_(4,_7,_2)
 + 5 X_(5,_2,_1) + 5 X_(5,_2,_2) + 2 X_(5,_4,_1) + 2 X_(5,_4,_2)
 + 5 X_(5,_8,_1) + 5 X_(5,_8,_2) + 3 X_(6,_1,_1) + 3 X_(6,_1,_2)
 + 5 X_(6,_4,_1) + 5 X_(6,_4,_2) + 2 X_(7,_0,_1) + 2 X_(7,_0,_2)
 + 2 X_(7,_1,_1) + 2 X_(7,_1,_2) + 3 X_(7,_3,_1) + 3 X_(7,_3,_2)
 + 5 X_(7,_4,_1) + 5 X_(7,_4,_2) + 4 X_(7,_8,_1) + 4 X_(7,_8,_2)
 + 3 X_(8,_1,_1) + 3 X_(8,_1,_2) + 4 X_(8,_2,_1) + 4 X_(8,_2,_2)
 + 5 X_(8,_5,_1) + 5 X_(8,_5,_2) + 4 X_(8,_7,_1) + 4 X_(8,_7,_2)
Subject To
1_in_group_1_flow_balance_for_node_1: F_(1,_3,_1) + F_(1,_4,_1) + F_(1,_6,_1)
 + F_(1,_7,_1) + F_(1,_8,_1) - F_(3,_1,_1) - F_(4,_1,_1) - F_(6,_1,_1)
 - F_(7,_1,_1) - F_(8,_1,_1) = 0
1_in_group_1_flow_balance_for_node_2: F_(2,_5,_1) + F_(2,_8,_1) - F_(5,_2,_1)
 - F_(8,_2,_1) = 0
1_in_group_1_flow_balance_for_node_3: - F_(0,_3,_1) - F_(1,_3,_1)
 + F_(3,_0,_1) + F_(3,_1,_1) + F_(3,_4,_1) + F_(3,_7,_1) - F_(4,_3,_1)
 - F_(7,_3,_1) = 0
1_in_group_1_flow_balance_for_node_6: - F_(1,_6,_1) - F_(4,_6,_1)
 + F_(6,_1,_1) + F_(6,_4,_1) = 0
1_in_group_1_flow_balance_for_node_7: - F_(0,_7,_1) - F_(1,_7,_1)
 - F_(3,_7,_1) - F_(4,_7,_1) + F_(7,_0,_1) + F_(7,_1,_1) + F_(7,_3,_1)
 + F_(7,_4,_1) + F_(7,_8,_1) - F_(8,_7,_1) = 0
1_in_group_2_flow_balance_for_node_0: F_(0,_3,_2) + F_(0,_4,_2) + F_(0,_7,_2)
 - F_(3,_0,_2) - F_(4,_0,_2) - F_(7,_0,_2) = 0
1_in_group_2_flow_balance_for_node_1: F_(1,_3,_2) + F_(1,_4,_2) + F_(1,_6,_2)
 + F_(1,_7,_2) + F_(1,_8,_2) - F_(3,_1,_2) - F_(4,_1,_2) - F_(6,_1,_2)
 - F_(7,_1,_2) - F_(8,_1,_2) = 0
1_in_group_2_flow_balance_for_node_3: - F_(0,_3,_2) - F_(1,_3,_2)
 + F_(3,_0,_2) + F_(3,_1,_2) + F_(3,_4,_2) + F_(3,_7,_2) - F_(4,_3,_2)
 - F_(7,_3,_2) = 0
1_in_group_2_flow_balance_for_node_4: - F_(0,_4,_2) - F_(1,_4,_2)
 - F_(3,_4,_2) + F_(4,_0,_2) + F_(4,_1,_2) + F_(4,_3,_2) + F_(4,_5,_2)
 + F_(4,_6,_2) + F_(4,_7,_2) - F_(5,_4,_2) - F_(6,_4,_2) - F_(7,_4,_2) = 0
1_in_group_2_flow_balance_for_node_7: - F_(0,_7,_2) - F_(1,_7,_2)
 - F_(3,_7,_2) - F_(4,_7,_2) + F_(7,_0,_2) + F_(7,_1,_2) + F_(7,_3,_2)
 + F_(7,_4,_2) + F_(7,_8,_2) - F_(8,_7,_2) = 0
2_output_flow_from_group_1's_source: F_(0,_3,_1) + F_(0,_4,_1) + F_(0,_7,_1)
 = 3
2_output_flow_from_group_2's_source: F_(2,_5,_2) + F_(2,_8,_2) = 3
3_in_group_1_input_flow_to_destination_4: F_(0,_4,_1) + F_(1,_4,_1)
 + F_(3,_4,_1) + F_(5,_4,_1) + F_(6,_4,_1) + F_(7,_4,_1) = 1
3_in_group_1_input_flow_to_destination_5: F_(2,_5,_1) + F_(4,_5,_1)
 + F_(8,_5,_1) = 1
3_in_group_1_input_flow_to_destination_8: F_(1,_8,_1) + F_(2,_8,_1)
 + F_(5,_8,_1) + F_(7,_8,_1) = 1
3_in_group_2_input_flow_to_destination_5: F_(2,_5,_2) + F_(4,_5,_2)
 + F_(8,_5,_2) = 1
3_in_group_2_input_flow_to_destination_6: F_(1,_6,_2) + F_(4,_6,_2) = 1
3_in_group_2_input_flow_to_destination_8: F_(1,_8,_2) + F_(2,_8,_2)
 + F_(5,_8,_2) + F_(7,_8,_2) = 1
4_in_group_1_Max_flow_allowed_on_edge_(0,3): F_(0,_3,_1) - 3 X_(0,_3,_1) <= 0
4_in_group_1_Max_flow_allowed_on_edge_(0,4): F_(0,_4,_1) - 3 X_(0,_4,_1) <= 0
4_in_group_1_Max_flow_allowed_on_edge_(0,7): F_(0,_7,_1) - 3 X_(0,_7,_1) <= 0
4_in_group_1_Max_flow_allowed_on_edge_(1,3): F_(1,_3,_1) - 3 X_(1,_3,_1) <= 0
4_in_group_1_Max_flow_allowed_on_edge_(1,4): F_(1,_4,_1) - 3 X_(1,_4,_1) <= 0
4_in_group_1_Max_flow_allowed_on_edge_(1,6): F_(1,_6,_1) - 3 X_(1,_6,_1) <= 0
4_in_group_1_Max_flow_allowed_on_edge_(1,7): F_(1,_7,_1) - 3 X_(1,_7,_1) <= 0
4_in_group_1_Max_flow_allowed_on_edge_(1,8): F_(1,_8,_1) - 3 X_(1,_8,_1) <= 0
4_in_group_1_Max_flow_allowed_on_edge_(2,5): F_(2,_5,_1) - 3 X_(2,_5,_1) <= 0
4_in_group_1_Max_flow_allowed_on_edge_(2,8): F_(2,_8,_1) - 3 X_(2,_8,_1) <= 0
4_in_group_1_Max_flow_allowed_on_edge_(3,0): F_(3,_0,_1) - 3 X_(3,_0,_1) <= 0
4_in_group_1_Max_flow_allowed_on_edge_(3,1): F_(3,_1,_1) - 3 X_(3,_1,_1) <= 0
4_in_group_1_Max_flow_allowed_on_edge_(3,4): F_(3,_4,_1) - 3 X_(3,_4,_1) <= 0
4_in_group_1_Max_flow_allowed_on_edge_(3,7): F_(3,_7,_1) - 3 X_(3,_7,_1) <= 0
4_in_group_1_Max_flow_allowed_on_edge_(4,0): F_(4,_0,_1) - 3 X_(4,_0,_1) <= 0
4_in_group_1_Max_flow_allowed_on_edge_(4,1): F_(4,_1,_1) - 3 X_(4,_1,_1) <= 0
4_in_group_1_Max_flow_allowed_on_edge_(4,3): F_(4,_3,_1) - 3 X_(4,_3,_1) <= 0
4_in_group_1_Max_flow_allowed_on_edge_(4,5): F_(4,_5,_1) - 3 X_(4,_5,_1) <= 0
4_in_group_1_Max_flow_allowed_on_edge_(4,6): F_(4,_6,_1) - 3 X_(4,_6,_1) <= 0
4_in_group_1_Max_flow_allowed_on_edge_(4,7): F_(4,_7,_1) - 3 X_(4,_7,_1) <= 0
4_in_group_1_Max_flow_allowed_on_edge_(5,2): F_(5,_2,_1) - 3 X_(5,_2,_1) <= 0
4_in_group_1_Max_flow_allowed_on_edge_(5,4): F_(5,_4,_1) - 3 X_(5,_4,_1) <= 0
4_in_group_1_Max_flow_allowed_on_edge_(5,8): F_(5,_8,_1) - 3 X_(5,_8,_1) <= 0
4_in_group_1_Max_flow_allowed_on_edge_(6,1): F_(6,_1,_1) - 3 X_(6,_1,_1) <= 0
4_in_group_1_Max_flow_allowed_on_edge_(6,4): F_(6,_4,_1) - 3 X_(6,_4,_1) <= 0
4_in_group_1_Max_flow_allowed_on_edge_(7,0): F_(7,_0,_1) - 3 X_(7,_0,_1) <= 0
4_in_group_1_Max_flow_allowed_on_edge_(7,1): F_(7,_1,_1) - 3 X_(7,_1,_1) <= 0
4_in_group_1_Max_flow_allowed_on_edge_(7,3): F_(7,_3,_1) - 3 X_(7,_3,_1) <= 0
4_in_group_1_Max_flow_allowed_on_edge_(7,4): F_(7,_4,_1) - 3 X_(7,_4,_1) <= 0
4_in_group_1_Max_flow_allowed_on_edge_(7,8): F_(7,_8,_1) - 3 X_(7,_8,_1) <= 0
4_in_group_1_Max_flow_allowed_on_edge_(8,1): F_(8,_1,_1) - 3 X_(8,_1,_1) <= 0
4_in_group_1_Max_flow_allowed_on_edge_(8,2): F_(8,_2,_1) - 3 X_(8,_2,_1) <= 0
4_in_group_1_Max_flow_allowed_on_edge_(8,5): F_(8,_5,_1) - 3 X_(8,_5,_1) <= 0
4_in_group_1_Max_flow_allowed_on_edge_(8,7): F_(8,_7,_1) - 3 X_(8,_7,_1) <= 0
4_in_group_2_Max_flow_allowed_on_edge_(0,3): F_(0,_3,_2) - 3 X_(0,_3,_2) <= 0
4_in_group_2_Max_flow_allowed_on_edge_(0,4): F_(0,_4,_2) - 3 X_(0,_4,_2) <= 0
4_in_group_2_Max_flow_allowed_on_edge_(0,7): F_(0,_7,_2) - 3 X_(0,_7,_2) <= 0
4_in_group_2_Max_flow_allowed_on_edge_(1,3): F_(1,_3,_2) - 3 X_(1,_3,_2) <= 0
4_in_group_2_Max_flow_allowed_on_edge_(1,4): F_(1,_4,_2) - 3 X_(1,_4,_2) <= 0
4_in_group_2_Max_flow_allowed_on_edge_(1,6): F_(1,_6,_2) - 3 X_(1,_6,_2) <= 0
4_in_group_2_Max_flow_allowed_on_edge_(1,7): F_(1,_7,_2) - 3 X_(1,_7,_2) <= 0
4_in_group_2_Max_flow_allowed_on_edge_(1,8): F_(1,_8,_2) - 3 X_(1,_8,_2) <= 0
4_in_group_2_Max_flow_allowed_on_edge_(2,5): F_(2,_5,_2) - 3 X_(2,_5,_2) <= 0
4_in_group_2_Max_flow_allowed_on_edge_(2,8): F_(2,_8,_2) - 3 X_(2,_8,_2) <= 0
4_in_group_2_Max_flow_allowed_on_edge_(3,0): F_(3,_0,_2) - 3 X_(3,_0,_2) <= 0
4_in_group_2_Max_flow_allowed_on_edge_(3,1): F_(3,_1,_2) - 3 X_(3,_1,_2) <= 0
4_in_group_2_Max_flow_allowed_on_edge_(3,4): F_(3,_4,_2) - 3 X_(3,_4,_2) <= 0
4_in_group_2_Max_flow_allowed_on_edge_(3,7): F_(3,_7,_2) - 3 X_(3,_7,_2) <= 0
4_in_group_2_Max_flow_allowed_on_edge_(4,0): F_(4,_0,_2) - 3 X_(4,_0,_2) <= 0
4_in_group_2_Max_flow_allowed_on_edge_(4,1): F_(4,_1,_2) - 3 X_(4,_1,_2) <= 0
4_in_group_2_Max_flow_allowed_on_edge_(4,3): F_(4,_3,_2) - 3 X_(4,_3,_2) <= 0
4_in_group_2_Max_flow_allowed_on_edge_(4,5): F_(4,_5,_2) - 3 X_(4,_5,_2) <= 0
4_in_group_2_Max_flow_allowed_on_edge_(4,6): F_(4,_6,_2) - 3 X_(4,_6,_2) <= 0
4_in_group_2_Max_flow_allowed_on_edge_(4,7): F_(4,_7,_2) - 3 X_(4,_7,_2) <= 0
4_in_group_2_Max_flow_allowed_on_edge_(5,2): F_(5,_2,_2) - 3 X_(5,_2,_2) <= 0
4_in_group_2_Max_flow_allowed_on_edge_(5,4): F_(5,_4,_2) - 3 X_(5,_4,_2) <= 0
4_in_group_2_Max_flow_allowed_on_edge_(5,8): F_(5,_8,_2) - 3 X_(5,_8,_2) <= 0
4_in_group_2_Max_flow_allowed_on_edge_(6,1): F_(6,_1,_2) - 3 X_(6,_1,_2) <= 0
4_in_group_2_Max_flow_allowed_on_edge_(6,4): F_(6,_4,_2) - 3 X_(6,_4,_2) <= 0
4_in_group_2_Max_flow_allowed_on_edge_(7,0): F_(7,_0,_2) - 3 X_(7,_0,_2) <= 0
4_in_group_2_Max_flow_allowed_on_edge_(7,1): F_(7,_1,_2) - 3 X_(7,_1,_2) <= 0
4_in_group_2_Max_flow_allowed_on_edge_(7,3): F_(7,_3,_2) - 3 X_(7,_3,_2) <= 0
4_in_group_2_Max_flow_allowed_on_edge_(7,4): F_(7,_4,_2) - 3 X_(7,_4,_2) <= 0
4_in_group_2_Max_flow_allowed_on_edge_(7,8): F_(7,_8,_2) - 3 X_(7,_8,_2) <= 0
4_in_group_2_Max_flow_allowed_on_edge_(8,1): F_(8,_1,_2) - 3 X_(8,_1,_2) <= 0
4_in_group_2_Max_flow_allowed_on_edge_(8,2): F_(8,_2,_2) - 3 X_(8,_2,_2) <= 0
4_in_group_2_Max_flow_allowed_on_edge_(8,5): F_(8,_5,_2) - 3 X_(8,_5,_2) <= 0
4_in_group_2_Max_flow_allowed_on_edge_(8,7): F_(8,_7,_2) - 3 X_(8,_7,_2) <= 0
5_Max_#(0,3)_allowed_to_be_chosen: X_(0,_3,_1) + X_(0,_3,_2) <= 2
5_Max_#(0,4)_allowed_to_be_chosen: X_(0,_4,_1) + X_(0,_4,_2) <= 2
5_Max_#(0,7)_allowed_to_be_chosen: X_(0,_7,_1) + X_(0,_7,_2) <= 2
5_Max_#(1,3)_allowed_to_be_chosen: X_(1,_3,_1) + X_(1,_3,_2) <= 2
5_Max_#(1,4)_allowed_to_be_chosen: X_(1,_4,_1) + X_(1,_4,_2) <= 2
5_Max_#(1,6)_allowed_to_be_chosen: X_(1,_6,_1) + X_(1,_6,_2) <= 2
5_Max_#(1,7)_allowed_to_be_chosen: X_(1,_7,_1) + X_(1,_7,_2) <= 2
5_Max_#(1,8)_allowed_to_be_chosen: X_(1,_8,_1) + X_(1,_8,_2) <= 2
5_Max_#(2,5)_allowed_to_be_chosen: X_(2,_5,_1) + X_(2,_5,_2) <= 2
5_Max_#(2,8)_allowed_to_be_chosen: X_(2,_8,_1) + X_(2,_8,_2) <= 2
5_Max_#(3,0)_allowed_to_be_chosen: X_(3,_0,_1) + X_(3,_0,_2) <= 2
5_Max_#(3,1)_allowed_to_be_chosen: X_(3,_1,_1) + X_(3,_1,_2) <= 2
5_Max_#(3,4)_allowed_to_be_chosen: X_(3,_4,_1) + X_(3,_4,_2) <= 2
5_Max_#(3,7)_allowed_to_be_chosen: X_(3,_7,_1) + X_(3,_7,_2) <= 2
5_Max_#(4,0)_allowed_to_be_chosen: X_(4,_0,_1) + X_(4,_0,_2) <= 2
5_Max_#(4,1)_allowed_to_be_chosen: X_(4,_1,_1) + X_(4,_1,_2) <= 2
5_Max_#(4,3)_allowed_to_be_chosen: X_(4,_3,_1) + X_(4,_3,_2) <= 2
5_Max_#(4,5)_allowed_to_be_chosen: X_(4,_5,_1) + X_(4,_5,_2) <= 2
5_Max_#(4,6)_allowed_to_be_chosen: X_(4,_6,_1) + X_(4,_6,_2) <= 2
5_Max_#(4,7)_allowed_to_be_chosen: X_(4,_7,_1) + X_(4,_7,_2) <= 2
5_Max_#(5,2)_allowed_to_be_chosen: X_(5,_2,_1) + X_(5,_2,_2) <= 2
5_Max_#(5,4)_allowed_to_be_chosen: X_(5,_4,_1) + X_(5,_4,_2) <= 2
5_Max_#(5,8)_allowed_to_be_chosen: X_(5,_8,_1) + X_(5,_8,_2) <= 2
5_Max_#(6,1)_allowed_to_be_chosen: X_(6,_1,_1) + X_(6,_1,_2) <= 2
5_Max_#(6,4)_allowed_to_be_chosen: X_(6,_4,_1) + X_(6,_4,_2) <= 2
5_Max_#(7,0)_allowed_to_be_chosen: X_(7,_0,_1) + X_(7,_0,_2) <= 2
5_Max_#(7,1)_allowed_to_be_chosen: X_(7,_1,_1) + X_(7,_1,_2) <= 2
5_Max_#(7,3)_allowed_to_be_chosen: X_(7,_3,_1) + X_(7,_3,_2) <= 2
5_Max_#(7,4)_allowed_to_be_chosen: X_(7,_4,_1) + X_(7,_4,_2) <= 2
5_Max_#(7,8)_allowed_to_be_chosen: X_(7,_8,_1) + X_(7,_8,_2) <= 2
5_Max_#(8,1)_allowed_to_be_chosen: X_(8,_1,_1) + X_(8,_1,_2) <= 2
5_Max_#(8,2)_allowed_to_be_chosen: X_(8,_2,_1) + X_(8,_2,_2) <= 2
5_Max_#(8,5)_allowed_to_be_chosen: X_(8,_5,_1) + X_(8,_5,_2) <= 2
5_Max_#(8,7)_allowed_to_be_chosen: X_(8,_7,_1) + X_(8,_7,_2) <= 2
6_in_group_1_no_input_to_source: F_(3,_0,_1) + F_(4,_0,_1) + F_(7,_0,_1) = 0
6_in_group_2_no_input_to_source: F_(5,_2,_2) + F_(8,_2,_2) = 0
Bounds
0 <= F_(0,_3,_1)
0 <= F_(0,_3,_2)
0 <= F_(0,_4,_1)
0 <= F_(0,_4,_2)
0 <= F_(0,_7,_1)
0 <= F_(0,_7,_2)
0 <= F_(1,_3,_1)
0 <= F_(1,_3,_2)
0 <= F_(1,_4,_1)
0 <= F_(1,_4,_2)
0 <= F_(1,_6,_1)
0 <= F_(1,_6,_2)
0 <= F_(1,_7,_1)
0 <= F_(1,_7,_2)
0 <= F_(1,_8,_1)
0 <= F_(1,_8,_2)
0 <= F_(2,_5,_1)
0 <= F_(2,_5,_2)
0 <= F_(2,_8,_1)
0 <= F_(2,_8,_2)
0 <= F_(3,_0,_1)
0 <= F_(3,_0,_2)
0 <= F_(3,_1,_1)
0 <= F_(3,_1,_2)
0 <= F_(3,_4,_1)
0 <= F_(3,_4,_2)
0 <= F_(3,_7,_1)
0 <= F_(3,_7,_2)
0 <= F_(4,_0,_1)
0 <= F_(4,_0,_2)
0 <= F_(4,_1,_1)
0 <= F_(4,_1,_2)
0 <= F_(4,_3,_1)
0 <= F_(4,_3,_2)
0 <= F_(4,_5,_1)
0 <= F_(4,_5,_2)
0 <= F_(4,_6,_1)
0 <= F_(4,_6,_2)
0 <= F_(4,_7,_1)
0 <= F_(4,_7,_2)
0 <= F_(5,_2,_1)
0 <= F_(5,_2,_2)
0 <= F_(5,_4,_1)
0 <= F_(5,_4,_2)
0 <= F_(5,_8,_1)
0 <= F_(5,_8,_2)
0 <= F_(6,_1,_1)
0 <= F_(6,_1,_2)
0 <= F_(6,_4,_1)
0 <= F_(6,_4,_2)
0 <= F_(7,_0,_1)
0 <= F_(7,_0,_2)
0 <= F_(7,_1,_1)
0 <= F_(7,_1,_2)
0 <= F_(7,_3,_1)
0 <= F_(7,_3,_2)
0 <= F_(7,_4,_1)
0 <= F_(7,_4,_2)
0 <= F_(7,_8,_1)
0 <= F_(7,_8,_2)
0 <= F_(8,_1,_1)
0 <= F_(8,_1,_2)
0 <= F_(8,_2,_1)
0 <= F_(8,_2,_2)
0 <= F_(8,_5,_1)
0 <= F_(8,_5,_2)
0 <= F_(8,_7,_1)
0 <= F_(8,_7,_2)
Generals
F_(0,_3,_1)
F_(0,_3,_2)
F_(0,_4,_1)
F_(0,_4,_2)
F_(0,_7,_1)
F_(0,_7,_2)
F_(1,_3,_1)
F_(1,_3,_2)
F_(1,_4,_1)
F_(1,_4,_2)
F_(1,_6,_1)
F_(1,_6,_2)
F_(1,_7,_1)
F_(1,_7,_2)
F_(1,_8,_1)
F_(1,_8,_2)
F_(2,_5,_1)
F_(2,_5,_2)
F_(2,_8,_1)
F_(2,_8,_2)
F_(3,_0,_1)
F_(3,_0,_2)
F_(3,_1,_1)
F_(3,_1,_2)
F_(3,_4,_1)
F_(3,_4,_2)
F_(3,_7,_1)
F_(3,_7,_2)
F_(4,_0,_1)
F_(4,_0,_2)
F_(4,_1,_1)
F_(4,_1,_2)
F_(4,_3,_1)
F_(4,_3,_2)
F_(4,_5,_1)
F_(4,_5,_2)
F_(4,_6,_1)
F_(4,_6,_2)
F_(4,_7,_1)
F_(4,_7,_2)
F_(5,_2,_1)
F_(5,_2,_2)
F_(5,_4,_1)
F_(5,_4,_2)
F_(5,_8,_1)
F_(5,_8,_2)
F_(6,_1,_1)
F_(6,_1,_2)
F_(6,_4,_1)
F_(6,_4,_2)
F_(7,_0,_1)
F_(7,_0,_2)
F_(7,_1,_1)
F_(7,_1,_2)
F_(7,_3,_1)
F_(7,_3,_2)
F_(7,_4,_1)
F_(7,_4,_2)
F_(7,_8,_1)
F_(7,_8,_2)
F_(8,_1,_1)
F_(8,_1,_2)
F_(8,_2,_1)
F_(8,_2,_2)
F_(8,_5,_1)
F_(8,_5,_2)
F_(8,_7,_1)
F_(8,_7,_2)
Binaries
X_(0,_3,_1)
X_(0,_3,_2)
X_(0,_4,_1)
X_(0,_4,_2)
X_(0,_7,_1)
X_(0,_7,_2)
X_(1,_3,_1)
X_(1,_3,_2)
X_(1,_4,_1)
X_(1,_4,_2)
X_(1,_6,_1)
X_(1,_6,_2)
X_(1,_7,_1)
X_(1,_7,_2)
X_(1,_8,_1)
X_(1,_8,_2)
X_(2,_5,_1)
X_(2,_5,_2)
X_(2,_8,_1)
X_(2,_8,_2)
X_(3,_0,_1)
X_(3,_0,_2)
X_(3,_1,_1)
X_(3,_1,_2)
X_(3,_4,_1)
X_(3,_4,_2)
X_(3,_7,_1)
X_(3,_7,_2)
X_(4,_0,_1)
X_(4,_0,_2)
X_(4,_1,_1)
X_(4,_1,_2)
X_(4,_3,_1)
X_(4,_3,_2)
X_(4,_5,_1)
X_(4,_5,_2)
X_(4,_6,_1)
X_(4,_6,_2)
X_(4,_7,_1)
X_(4,_7,_2)
X_(5,_2,_1)
X_(5,_2,_2)
X_(5,_4,_1)
X_(5,_4,_2)
X_(5,_8,_1)
X_(5,_8,_2)
X_(6,_1,_1)
X_(6,_1,_2)
X_(6,_4,_1)
X_(6,_4,_2)
X_(7,_0,_1)
X_(7,_0,_2)
X_(7,_1,_1)
X_(7,_1,_2)
X_(7,_3,_1)
X_(7,_3,_2)
X_(7,_4,_1)
X_(7,_4,_2)
X_(7,_8,_1)
X_(7,_8,_2)
X_(8,_1,_1)
X_(8,_1,_2)
X_(8,_2,_1)
X_(8,_2,_2)
X_(8,_5,_1)
X_(8,_5,_2)
X_(8,_7,_1)
X_(8,_7,_2)
End
